instances/shortest_path/discrete/shortest_path_6_14.kp
83205
101

[3.007623393211279 1.9900008765450965 4.198951439459812 3.7483000604932175 3.992060696214507 0.6261270484680499 4.017931139360194 2.081762435703843 0.06453539569175275 1.2052957945376348 2.0439872445591756 4.1755906401086635 3.357417680922044 3.1681818135258744 0.12480123574168676 2.3280035004798636 3.203143351510796 2.664346400673618 1.6259709334652686 2.0266482965995105 0.5265945753473305 2.61456810738958 1.9770674035511593 3.894957132278421]

[55 68 6 99 12 97 25 59 41 78 71 87 60 48 20 28 93 80 1 18 9 15 40 6]
